NAME : traveling-santa-2018-prime-paths.29709.tour
COMMENT : Length = 29709
COMMENT : Found by LKH [Keld Helsgaun] Sun Jun 12 20:00:26 2022
TYPE : TOUR
DIMENSION : 100
TOUR_SECTION
1
61
14
36
48
19
56
97
64
91
82
87
3
99
12
44
21
10
2
75
17
4
81
93
80
92
67
63
54
24
66
37
90
77
69
89
68
57
46
32
50
31
11
74
35
40
15
79
76
13
39
60
28
27
72
98
70
23
30
85
16
84
43
59
26
47
88
53
100
62
25
52
96
29
86
94
34
83
95
55
51
45
7
38
58
65
6
8
49
18
9
5
42
22
41
78
20
33
73
71
-1
EOF
